Minimize
  - 7 y_0 - 3 y_1 - 2 y_2 - 3 y_3 - y_4 - 3 y_6 - 4 y_7 - 4 y_8 - y_9
   - 6 y_10 - 5 y_11 - 5 y_12 - 2 y_13 - 4 y_14 - 3 y_15 - 4 y_16 - 4 y_17
   - 4 y_18 - 5 y_19 - 4 y_20 - 5 y_21 - 5 y_22 - 4 y_23 - 4 y_24 - 5 y_25
   - 2 y_26 - 5 y_27 - 2 y_28 - 2 y_29 - 3 y_30 - 4 y_31 - 5 y_32 - 5 y_33
   - 4 y_34 - 5 y_35 - 2 y_36 - 3 y_37 - 4 y_38 - 2 y_40 - 5 y_41 - 4 y_42
   - 3 y_43 - 4 y_44 - 3 y_45 - y_46 - 4 y_47 - 4 y_48 - 5 y_49
   + 178 Constant
Subject To
 c_0: y_47 = 1
 c_1_0: y_0 >= 1
 c_1_1: y_1 + y_37 >= 1
 c_1_2: y_2 + y_28 >= 1
 c_1_3: y_3 + y_30 + y_34 >= 1
 c_1_4: y_4 >= 1
 c_1_5: y_5 + y_39 + y_46 >= 1
 c_1_6: y_6 + y_15 + y_27 + y_45 >= 1
 c_1_7: y_7 + y_17 + y_34 + y_48 >= 1
 c_1_8: y_8 + y_16 >= 1
 c_1_9: y_9 + y_36 + y_39 + y_46 >= 1
 c_1_10: y_10 + y_19 >= 1
 c_1_11: y_11 + y_12 + y_21 >= 1
 c_1_12: y_11 + y_12 + y_21 >= 1
 c_1_13: y_13 + y_26 >= 1
 c_1_14: y_14 + y_18 + y_23 + y_25 + y_31 >= 1
 c_1_15: y_6 + y_15 + y_45 >= 1
 c_1_16: y_8 + y_16 >= 1
 c_1_17: y_7 + y_17 >= 1
 c_1_18: y_14 + y_18 + y_23 + y_25 >= 1
 c_1_19: y_10 + y_19 >= 1
 c_1_20: y_20 + y_23 + y_38 >= 1
 c_1_21: y_11 + y_12 + y_21 >= 1
 c_1_22: y_22 + y_33 + y_49 >= 1
 c_1_23: y_14 + y_18 + y_20 + y_23 >= 1
 c_1_24: y_24 + y_33 + y_35 + y_47 >= 1
 c_1_25: y_14 + y_18 + y_25 >= 1
 c_1_26: y_13 + y_26 + y_30 + y_40 >= 1
 c_1_27: y_6 + y_27 + y_32 >= 1
 c_1_28: y_2 + y_28 >= 1
 c_1_29: y_29 + y_36 + y_37 >= 1
 c_1_30: y_3 + y_26 + y_30 + y_40 >= 1
 c_1_31: y_14 + y_31 >= 1
 c_1_32: y_27 + y_32 >= 1
 c_1_33: y_22 + y_24 + y_33 + y_35 + y_47 >= 1
 c_1_34: y_3 + y_7 + y_34 + y_48 >= 1
 c_1_35: y_24 + y_33 + y_35 + y_47 >= 1
 c_1_36: y_9 + y_29 + y_36 + y_37 + y_46 >= 1
 c_1_37: y_1 + y_29 + y_36 + y_37 >= 1
 c_1_38: y_20 + y_38 >= 1
 c_1_39: y_5 + y_9 + y_39 + y_46 >= 1
 c_1_40: y_26 + y_30 + y_40 >= 1
 c_1_41: y_41 >= 1
 c_1_42: y_42 >= 1
 c_1_43: y_43 >= 1
 c_1_44: y_44 >= 1
 c_1_45: y_6 + y_15 + y_45 >= 1
 c_1_46: y_5 + y_9 + y_36 + y_39 + y_46 >= 1
 c_1_47: y_24 + y_33 + y_35 + y_47 >= 1
 c_1_48: y_7 + y_34 + y_48 >= 1
 c_1_49: y_22 + y_49 >= 1
Bounds
 Constant = 1
Binaries
 y_0 y_1 y_2 y_3 y_4 y_5 y_6 y_7 y_8 y_9 y_10 y_11 y_12 y_13 y_14 y_15 y_16
 y_17 y_18 y_19 y_20 y_21 y_22 y_23 y_24 y_25 y_26 y_27 y_28 y_29 y_30 y_31
 y_32 y_33 y_34 y_35 y_36 y_37 y_38 y_39 y_40 y_41 y_42 y_43 y_44 y_45 y_46
 y_47 y_48 y_49
End
